c Maximum weighted independent set instances generated from exactcolors.
c scalef: 24403223 .
c An independent set of value > 24403223 defines an improving stable sets for coloring.
p edge 88 146
e 1 2
e 1 6
e 1 7
e 1 65
e 2 4
e 2 38
e 2 53
e 3 5
e 3 8
e 3 21
e 3 22
e 4 12
e 4 13
e 4 20
e 5 6
e 5 60
e 5 61
e 6 24
e 6 25
e 7 59
e 7 78
e 7 79
e 8 9
e 8 10
e 9 10
e 9 54
e 9 55
e 10 15
e 10 17
e 11 13
e 11 30
e 11 32
e 11 44
e 12 13
e 12 45
e 12 47
e 14 15
e 14 16
e 14 40
e 14 68
e 15 16
e 16 18
e 16 19
e 17 18
e 17 19
e 18 19
e 20 21
e 20 42
e 20 43
e 21 26
e 22 27
e 22 28
e 22 41
e 23 24
e 23 25
e 23 77
e 24 25
e 26 27
e 26 28
e 27 28
e 29 30
e 29 31
e 29 66
e 29 67
e 30 31
e 31 33
e 31 56
e 32 33
e 32 34
e 33 37
e 33 62
e 34 35
e 34 57
e 34 58
e 35 36
e 35 87
e 35 88
e 36 37
e 36 63
e 36 64
e 37 86
e 38 39
e 38 40
e 39 40
e 39 69
e 39 70
e 41 42
e 41 51
e 41 52
e 42 43
e 43 50
e 44 45
e 44 46
e 45 46
e 46 49
e 46 74
e 47 48
e 47 49
e 48 49
e 48 75
e 48 76
e 50 51
e 50 52
e 51 81
e 51 82
e 52 80
e 53 54
e 53 55
e 54 71
e 55 73
e 55 83
e 56 57
e 56 58
e 57 58
e 59 60
e 59 61
e 60 61
e 62 63
e 62 64
e 63 64
e 65 66
e 65 67
e 66 67
e 68 69
e 68 70
e 69 70
e 71 72
e 71 73
e 72 73
e 72 84
e 72 85
e 74 75
e 74 76
e 75 76
e 77 78
e 77 79
e 78 79
e 80 81
e 80 82
e 81 82
e 83 84
e 83 85
e 84 85
e 86 87
e 86 88
e 87 88
n 1 841490
n 2 841490
n 3 841490
n 4 841490
n 5 841490
n 6 841490
n 7 841490
n 8 841490
n 9 841490
n 10 841490
n 11 841490
n 12 841490
n 13 841490
n 14 841490
n 15 841490
n 16 841490
n 17 841490
n 18 841490
n 19 841490
n 20 841490
n 21 841490
n 22 841490
n 23 841490
n 24 841490
n 25 841490
n 26 841490
n 27 841490
n 28 841490
n 29 841490
n 30 841490
n 31 841490
n 32 841490
n 33 841490
n 34 841490
n 35 841490
n 36 841490
n 37 841490
n 38 841490
n 39 841490
n 40 841490
n 41 841490
n 42 841490
n 43 841490
n 44 841490
n 45 841490
n 46 841490
n 47 841490
n 48 841490
n 49 841490
n 50 841490
n 51 841490
n 52 841490
n 53 841490
n 54 841490
n 55 841490
n 56 841490
n 57 841490
n 58 841490
n 59 841490
n 60 841490
n 61 841490
n 62 841490
n 63 841490
n 64 841490
n 65 841490
n 66 841490
n 67 841490
n 68 841490
n 69 841490
n 70 841490
n 71 841490
n 72 841490
n 73 841490
n 74 841490
n 75 841490
n 76 841490
n 77 841490
n 78 841490
n 79 841490
n 80 841490
n 81 841490
n 82 841490
n 83 841490
n 84 841490
n 85 841490
n 86 841490
n 87 841490
n 88 841490
